646,454
646,358
681,346
663,524
681,556
822,212
948,270
956,131
1020,67
765,490
681,946
803,646
826,511
799,424
681,346
254,545
468,514
681,886
1108,623
996,635
765,490
723,364
704,258
342,67
723,140
948,270
